Route #1: 32 40 3 50 9 52 53 
Route #2: 42 13 39 34 14 30 4 
Route #3: 6 46 55 31 17 10 
Route #4: 43 54 33 35 41 21 5 
Route #5: 22 56 
Route #6: 8 15 51 25 48 12 38 49 
Route #7: 20 16 23 2 7 29 36 47 
Route #8: 1 45 24 44 37 
Route #9: 11 26 19 27 18 28 
cost 1876.71
